language ESSENCE' 1.0

letting jobs = 102
letting horizon = 806
letting resourcesRenew = 2
letting resourcesNonrenew = 2
letting resourceLimits = [31, 28, 409, 385]
letting successors = [[2, 3, 4, 5, 6, 8, 9, 10, 11, 12, 13, 15, 19, 20, 23, 24, 25], [50, 39, 37, 32, 31, 16, 7], [55, 54, 50, 47, 41, 39, 37, 36, 32, 31, 30, 27, 26, 21, 18], [50, 43, 42, 33, 31, 27, 17, 16], [53, 49, 48, 47, 43, 42, 37, 33, 32, 28, 22], [48, 47, 38, 29, 27, 22, 14], [52, 51, 49, 45, 44, 43, 42, 33, 17], [66, 48, 47, 45, 44, 43, 42, 41, 39, 36, 34, 29, 27], [66, 62, 59, 56, 55, 54, 53, 51, 50, 49, 47, 46, 45, 41, 39, 32], [66, 64, 60, 55, 54, 50, 49, 48, 47, 46, 45, 42, 40, 36, 32], [55, 53, 50, 42, 41, 40, 37, 16], [70, 60, 54, 53, 52, 50, 48, 45, 44, 43, 41, 37, 36], [60, 53, 48, 45, 40, 35, 22], [78, 66, 55, 53, 46, 44, 41, 31], [66, 57, 55, 49, 48, 44, 43, 27], [70, 66, 62, 61, 60, 59, 57, 51, 48, 46, 44, 36], [64, 61, 60, 56, 55, 54, 53, 47, 46, 40, 38], [78, 64, 60, 52, 49, 42, 40, 35], [62, 60, 59, 58, 49, 48, 45, 38, 35], [70, 69, 62, 51, 48, 44, 33], [64, 62, 61, 60, 52, 46, 45, 44, 38], [70, 62, 61, 59, 57, 56, 54, 51, 46, 44], [72, 70, 66, 64, 59, 56, 48, 44, 42], [64, 59, 58, 48, 35], [81, 78, 72, 69, 66, 64, 58, 57, 56, 53, 43], [100, 78, 72, 70, 66, 62, 59, 44, 42], [81, 78, 74, 70, 69, 67, 65, 61, 56, 52, 51], [78, 73, 70, 69, 66, 65, 60, 57, 40], [101, 78, 76, 73, 71, 68, 62, 61, 58, 57, 49, 46], [81, 79, 78, 76, 69, 67, 61, 56, 49, 44], [70, 64, 60, 56, 49, 40], [73, 61, 44, 38], [81, 78, 68, 66, 58, 56, 41], [73, 71, 70, 69, 67, 64, 62, 61, 59, 58, 57], [101, 76, 73, 71, 70, 65, 61, 57, 46], [81, 79, 78, 76, 75, 74, 72, 69, 68, 67, 65, 63, 56], [78, 75, 67, 65, 59, 57, 51], [100, 99, 97, 84, 81, 79, 78, 76, 75, 72, 71, 70, 69, 67, 63], [78, 76, 71, 68, 67, 60, 58, 57], [101, 100, 97, 71, 68, 67, 62, 59, 58], [79, 76, 72, 67, 61, 57], [101, 98, 96, 93, 84, 83, 81, 79, 77, 76, 69, 67, 61], [96, 84, 77, 67, 62, 61, 59], [101, 99, 85, 80, 71, 68, 65, 63, 58], [101, 99, 97, 85, 83, 81, 79, 77, 75, 71, 68], [99, 97, 84, 81, 79, 72, 69, 67, 63], [99, 98, 97, 95, 85, 76, 57], [100, 98, 95, 83, 80, 79, 78, 77, 74, 71, 68], [99, 97, 96, 85, 84, 82, 75, 72, 63], [101, 100, 85, 83, 80, 79, 77, 74, 71, 68], [100, 84, 80, 73, 72, 64, 63], [97, 95, 93, 84, 73, 72, 59], [98, 97, 85, 80, 79, 74, 71, 63], [100, 99, 97, 83, 81, 75, 71, 67], [101, 100, 94, 89, 85, 80, 79, 70], [101, 100, 99, 97, 93, 82, 73, 71], [100, 82, 74, 63], [98, 96, 95, 92, 89, 83, 82, 77, 74], [99, 98, 94, 92, 89, 79, 76], [99, 97, 93, 91, 89, 77, 75], [97, 94, 92, 89, 88, 82, 75], [98, 95, 94, 93, 90, 89, 86, 83, 82], [94, 93, 92, 90, 89, 83, 77], [101, 97, 96, 95, 90, 83, 77], [93, 91, 90, 89, 88, 86, 83], [99, 96, 95, 90, 87, 85, 84], [95, 92, 89, 88, 85, 82], [96, 94, 93, 92, 91, 89, 87], [92, 90, 89, 87, 86, 82], [96, 93, 92, 91, 88, 83], [94, 89, 88, 87, 86], [98, 92, 89, 88, 86], [96, 92, 90, 89, 87], [93, 91, 84], [95, 80], [88, 80], [88, 87, 86], [92, 91, 87], [87, 82], [90, 86], [88, 87], [91], [87], [86], [86], [102], [102], [102], [102], [102], [102], [102], [102], [102], [102], [102], [102], [102], [102], [102], [102], []]
letting durations = [[0], [1, 7, 9], [2, 5, 9], [4, 8, 10], [5, 6, 8], [1, 1, 5], [1, 2, 9], [4, 4, 7], [1, 4, 5], [3, 7, 7], [7, 9, 9], [4, 8, 9], [4, 6, 8], [1, 3, 4], [1, 2, 6], [4, 6, 8], [3, 4, 8], [3, 6, 10], [3, 8, 8], [1, 4, 6], [4, 6, 10], [2, 5, 10], [2, 3, 7], [4, 6, 7], [1, 4, 9], [2, 9, 10], [2, 6, 9], [7, 9, 10], [2, 6, 9], [3, 8, 10], [4, 6, 9], [4, 5, 9], [3, 6, 7], [1, 2, 8], [1, 4, 7], [7, 8, 9], [1, 4, 10], [1, 3, 6], [2, 7, 8], [2, 7, 9], [5, 6, 8], [3, 9, 10], [5, 8, 9], [6, 7, 8], [1, 4, 6], [1, 3, 9], [3, 7, 10], [3, 5, 6], [2, 4, 7], [3, 9, 10], [1, 2, 10], [6, 6, 10], [2, 5, 6], [8, 8, 10], [2, 3, 8], [2, 3, 6], [2, 6, 9], [4, 8, 8], [2, 3, 10], [2, 8, 10], [1, 5, 7], [4, 6, 8], [1, 4, 7], [2, 3, 7], [1, 2, 8], [2, 4, 10], [1, 3, 4], [2, 3, 7], [2, 5, 9], [4, 4, 10], [5, 9, 10], [3, 7, 7], [2, 9, 9], [1, 7, 8], [1, 4, 5], [1, 8, 9], [2, 6, 10], [5, 8, 9], [5, 6, 7], [4, 5, 7], [2, 6, 8], [4, 5, 10], [1, 6, 9], [1, 4, 7], [4, 5, 7], [6, 7, 8], [4, 8, 9], [1, 5, 7], [5, 6, 7], [1, 5, 7], [3, 4, 7], [2, 2, 3], [4, 7, 8], [4, 7, 8], [1, 3, 6], [2, 3, 4], [6, 8, 9], [4, 7, 9], [1, 8, 10], [7, 8, 9], [1, 5, 8], [0]]
letting resourceUsage = [[[0, 0, 0, 0]], [[3, 4, 8, 0], [2, 3, 7, 0], [2, 2, 3, 0]], [[4, 2, 9, 0], [3, 1, 0, 5], [2, 1, 3, 0]], [[1, 5, 0, 10], [1, 3, 7, 0], [1, 3, 0, 9]], [[3, 4, 0, 3], [3, 2, 7, 0], [3, 2, 0, 2]], [[3, 4, 6, 0], [2, 2, 0, 8], [2, 2, 3, 0]], [[1, 3, 5, 0], [1, 3, 0, 6], [1, 3, 1, 0]], [[5, 2, 7, 0], [3, 2, 0, 4], [3, 2, 0, 2]], [[3, 3, 10, 0], [2, 3, 7, 0], [2, 3, 0, 4]], [[2, 2, 5, 0], [1, 1, 4, 0], [1, 1, 0, 1]], [[1, 2, 6, 0], [1, 2, 4, 0], [1, 2, 0, 3]], [[5, 2, 0, 2], [5, 1, 0, 3], [5, 1, 0, 2]], [[5, 3, 8, 0], [5, 2, 0, 6], [5, 2, 5, 0]], [[4, 4, 7, 0], [3, 2, 0, 2], [1, 2, 0, 2]], [[4, 2, 0, 8], [3, 2, 0, 7], [3, 2, 6, 0]], [[4, 5, 7, 0], [3, 4, 0, 7], [3, 4, 0, 4]], [[4, 4, 0, 7], [4, 3, 0, 6], [4, 1, 4, 0]], [[4, 5, 0, 6], [3, 2, 4, 0], [3, 1, 0, 2]], [[4, 5, 0, 7], [4, 4, 0, 7], [4, 4, 4, 0]], [[1, 1, 0, 3], [1, 1, 0, 2], [1, 1, 0, 1]], [[4, 4, 3, 0], [4, 4, 2, 0], [3, 3, 0, 6]], [[4, 3, 0, 9], [4, 3, 3, 0], [4, 3, 2, 0]], [[5, 4, 0, 6], [5, 4, 0, 4], [5, 4, 2, 0]], [[5, 4, 0, 5], [4, 3, 0, 4], [4, 3, 0, 3]], [[4, 2, 5, 0], [4, 1, 4, 0], [4, 1, 0, 6]], [[4, 4, 0, 4], [4, 3, 5, 0], [4, 3, 4, 0]], [[2, 3, 4, 0], [2, 3, 3, 0], [1, 3, 0, 4]], [[5, 3, 0, 7], [3, 3, 3, 0], [1, 1, 0, 7]], [[4, 5, 9, 0], [4, 3, 0, 4], [4, 3, 2, 0]], [[5, 3, 5, 0], [4, 2, 5, 0], [4, 2, 4, 0]], [[4, 2, 9, 0], [4, 1, 7, 0], [4, 1, 6, 0]], [[4, 3, 8, 0], [3, 2, 0, 4], [3, 2, 3, 0]], [[5, 2, 5, 0], [5, 2, 0, 5], [5, 1, 3, 0]], [[5, 3, 0, 9], [4, 3, 9, 0], [3, 2, 9, 0]], [[1, 2, 5, 0], [1, 1, 0, 1], [1, 1, 4, 0]], [[4, 3, 0, 5], [4, 2, 0, 4], [4, 1, 0, 4]], [[2, 5, 0, 10], [1, 4, 0, 5], [1, 3, 0, 4]], [[4, 2, 6, 0], [3, 1, 0, 3], [1, 1, 3, 0]], [[1, 5, 0, 5], [1, 4, 4, 0], [1, 4, 3, 0]], [[3, 3, 0, 6], [1, 2, 2, 0], [1, 2, 1, 0]], [[5, 4, 7, 0], [4, 4, 0, 1], [3, 3, 0, 1]], [[3, 1, 0, 4], [3, 1, 8, 0], [3, 1, 7, 0]], [[3, 2, 0, 9], [3, 1, 0, 8], [2, 1, 0, 7]], [[3, 4, 0, 8], [2, 3, 0, 7], [2, 3, 3, 0]], [[3, 4, 9, 0], [3, 2, 7, 0], [1, 2, 6, 0]], [[4, 3, 3, 0], [4, 3, 2, 0], [4, 3, 1, 0]], [[4, 5, 8, 0], [4, 4, 0, 4], [4, 3, 8, 0]], [[5, 3, 0, 6], [4, 2, 0, 5], [4, 2, 0, 4]], [[2, 3, 0, 10], [1, 3, 7, 0], [1, 1, 0, 8]], [[5, 2, 10, 0], [3, 2, 7, 0], [3, 2, 6, 0]], [[5, 3, 8, 0], [3, 2, 8, 0], [3, 2, 0, 7]], [[4, 4, 9, 0], [4, 2, 0, 7], [4, 2, 0, 6]], [[3, 2, 0, 10], [3, 1, 3, 0], [2, 1, 3, 0]], [[3, 2, 4, 0], [2, 2, 0, 5], [2, 2, 2, 0]], [[4, 5, 0, 9], [3, 4, 0, 6], [3, 3, 6, 0]], [[3, 4, 10, 0], [2, 4, 9, 0], [2, 4, 8, 0]], [[3, 1, 7, 0], [2, 1, 6, 0], [2, 1, 0, 5]], [[5, 2, 8, 0], [4, 1, 0, 2], [4, 1, 6, 0]], [[5, 4, 9, 0], [5, 4, 0, 1], [5, 3, 0, 1]], [[1, 4, 0, 7], [1, 3, 0, 7], [1, 2, 0, 7]], [[4, 1, 6, 0], [4, 1, 0, 4], [4, 1, 5, 0]], [[3, 5, 7, 0], [3, 3, 6, 0], [1, 3, 6, 0]], [[4, 5, 9, 0], [3, 3, 6, 0], [2, 3, 0, 1]], [[3, 3, 0, 8], [1, 3, 0, 7], [1, 2, 0, 6]], [[3, 4, 7, 0], [2, 3, 0, 9], [1, 3, 2, 0]], [[3, 3, 3, 0], [3, 2, 1, 0], [2, 2, 0, 6]], [[5, 5, 0, 3], [4, 4, 0, 2], [4, 4, 7, 0]], [[3, 4, 5, 0], [2, 2, 0, 5], [2, 1, 0, 2]], [[5, 2, 0, 4], [4, 2, 0, 4], [3, 2, 0, 4]], [[2, 3, 8, 0], [2, 3, 0, 3], [2, 1, 0, 3]], [[2, 3, 3, 0], [2, 3, 2, 0], [1, 3, 3, 0]], [[4, 4, 0, 8], [3, 4, 0, 8], [3, 4, 4, 0]], [[3, 4, 0, 10], [3, 3, 5, 0], [3, 3, 0, 8]], [[4, 3, 6, 0], [4, 1, 3, 0], [4, 1, 0, 3]], [[3, 4, 0, 10], [3, 4, 9, 0], [2, 3, 9, 0]], [[2, 1, 0, 4], [1, 1, 0, 4], [1, 1, 0, 3]], [[5, 2, 5, 0], [5, 2, 4, 0], [5, 2, 3, 0]], [[1, 4, 0, 10], [1, 4, 0, 7], [1, 4, 8, 0]], [[5, 4, 0, 3], [4, 3, 4, 0], [3, 3, 3, 0]], [[4, 4, 0, 6], [3, 3, 6, 0], [2, 3, 0, 3]], [[2, 2, 6, 0], [2, 2, 4, 0], [2, 2, 0, 2]], [[5, 3, 7, 0], [4, 3, 6, 0], [4, 3, 5, 0]], [[4, 2, 2, 0], [2, 2, 0, 6], [2, 2, 0, 5]], [[1, 3, 0, 7], [1, 2, 0, 6], [1, 2, 5, 0]], [[4, 2, 5, 0], [3, 2, 0, 9], [2, 2, 0, 9]], [[4, 3, 0, 9], [2, 2, 0, 8], [2, 1, 5, 0]], [[5, 2, 7, 0], [5, 2, 5, 0], [5, 2, 0, 1]], [[3, 3, 8, 0], [2, 2, 0, 10], [2, 2, 0, 9]], [[3, 5, 6, 0], [3, 3, 0, 6], [3, 2, 2, 0]], [[4, 5, 0, 3], [4, 3, 8, 0], [4, 3, 7, 0]], [[4, 4, 0, 3], [3, 3, 0, 3], [3, 3, 0, 2]], [[3, 5, 9, 0], [1, 4, 0, 7], [1, 4, 0, 5]], [[1, 5, 0, 5], [1, 4, 2, 0], [1, 4, 1, 0]], [[3, 5, 7, 0], [3, 3, 4, 0], [2, 3, 4, 0]], [[5, 4, 0, 9], [4, 4, 6, 0], [3, 4, 0, 9]], [[3, 3, 1, 0], [3, 2, 0, 3], [3, 2, 1, 0]], [[4, 1, 0, 10], [4, 1, 0, 7], [4, 1, 0, 6]], [[3, 2, 10, 0], [1, 2, 0, 6], [1, 2, 0, 4]], [[2, 3, 0, 8], [2, 3, 4, 0], [1, 3, 0, 1]], [[4, 2, 3, 0], [4, 2, 2, 0], [4, 2, 1, 0]], [[4, 3, 6, 0], [4, 3, 0, 9], [4, 1, 0, 9]], [[0, 0, 0, 0]]]
